c Reduced graph for R75_5g generated by Cyril Grelier
p edge 75 1407
e 1 4
e 1 5
e 1 7
e 1 9
e 1 10
e 1 13
e 1 15
e 1 16
e 1 20
e 1 22
e 1 23
e 1 25
e 1 26
e 1 27
e 1 28
e 1 29
e 1 32
e 1 33
e 1 34
e 1 35
e 1 36
e 1 38
e 1 40
e 1 44
e 1 45
e 1 46
e 1 49
e 1 51
e 1 52
e 1 54
e 1 55
e 1 57
e 1 58
e 1 59
e 1 60
e 1 62
e 1 63
e 1 64
e 1 66
e 1 68
e 1 70
e 1 71
e 1 74
e 2 3
e 2 4
e 2 5
e 2 6
e 2 8
e 2 9
e 2 10
e 2 12
e 2 14
e 2 17
e 2 18
e 2 23
e 2 24
e 2 25
e 2 29
e 2 30
e 2 33
e 2 36
e 2 38
e 2 39
e 2 40
e 2 41
e 2 43
e 2 45
e 2 46
e 2 48
e 2 50
e 2 53
e 2 54
e 2 57
e 2 58
e 2 60
e 2 61
e 2 62
e 2 63
e 2 64
e 2 66
e 2 67
e 2 68
e 2 69
e 2 73
e 3 5
e 3 7
e 3 9
e 3 10
e 3 14
e 3 16
e 3 17
e 3 18
e 3 23
e 3 26
e 3 27
e 3 28
e 3 29
e 3 30
e 3 31
e 3 34
e 3 38
e 3 41
e 3 44
e 3 45
e 3 46
e 3 47
e 3 48
e 3 49
e 3 50
e 3 52
e 3 54
e 3 57
e 3 59
e 3 61
e 3 62
e 3 63
e 3 64
e 3 65
e 3 66
e 3 69
e 3 70
e 3 71
e 3 73
e 3 74
e 4 5
e 4 7
e 4 10
e 4 11
e 4 12
e 4 13
e 4 14
e 4 15
e 4 17
e 4 19
e 4 20
e 4 21
e 4 23
e 4 24
e 4 25
e 4 26
e 4 30
e 4 33
e 4 34
e 4 37
e 4 46
e 4 47
e 4 48
e 4 50
e 4 51
e 4 54
e 4 56
e 4 57
e 4 59
e 4 60
e 4 63
e 4 64
e 4 66
e 4 67
e 4 69
e 4 71
e 4 72
e 4 73
e 5 9
e 5 10
e 5 11
e 5 12
e 5 15
e 5 17
e 5 18
e 5 19
e 5 21
e 5 22
e 5 24
e 5 26
e 5 27
e 5 28
e 5 32
e 5 34
e 5 37
e 5 39
e 5 45
e 5 46
e 5 48
e 5 50
e 5 52
e 5 53
e 5 54
e 5 55
e 5 56
e 5 58
e 5 60
e 5 62
e 5 63
e 5 64
e 5 65
e 5 67
e 5 75
e 6 8
e 6 12
e 6 15
e 6 19
e 6 22
e 6 25
e 6 26
e 6 28
e 6 29
e 6 30
e 6 32
e 6 35
e 6 36
e 6 37
e 6 38
e 6 39
e 6 42
e 6 44
e 6 45
e 6 46
e 6 47
e 6 48
e 6 49
e 6 50
e 6 52
e 6 54
e 6 55
e 6 56
e 6 57
e 6 63
e 6 64
e 6 65
e 6 67
e 6 68
e 6 71
e 6 72
e 6 73
e 6 74
e 7 9
e 7 11
e 7 12
e 7 13
e 7 16
e 7 17
e 7 18
e 7 19
e 7 20
e 7 21
e 7 25
e 7 27
e 7 28
e 7 29
e 7 30
e 7 31
e 7 32
e 7 33
e 7 35
e 7 37
e 7 39
e 7 40
e 7 41
e 7 48
e 7 49
e 7 50
e 7 53
e 7 57
e 7 59
e 7 60
e 7 62
e 7 65
e 7 69
e 7 72
e 7 73
e 8 10
e 8 11
e 8 12
e 8 13
e 8 16
e 8 18
e 8 20
e 8 21
e 8 22
e 8 26
e 8 28
e 8 29
e 8 32
e 8 33
e 8 35
e 8 37
e 8 39
e 8 40
e 8 44
e 8 46
e 8 47
e 8 48
e 8 49
e 8 51
e 8 53
e 8 56
e 8 57
e 8 58
e 8 59
e 8 63
e 8 64
e 8 65
e 8 68
e 8 69
e 8 72
e 8 75
e 9 10
e 9 11
e 9 14
e 9 15
e 9 19
e 9 20
e 9 21
e 9 22
e 9 23
e 9 24
e 9 27
e 9 31
e 9 32
e 9 34
e 9 35
e 9 36
e 9 37
e 9 38
e 9 46
e 9 48
e 9 50
e 9 51
e 9 52
e 9 53
e 9 59
e 9 66
e 9 67
e 9 69
e 9 70
e 9 71
e 9 73
e 9 74
e 10 12
e 10 14
e 10 16
e 10 19
e 10 20
e 10 23
e 10 24
e 10 25
e 10 26
e 10 31
e 10 33
e 10 34
e 10 37
e 10 40
e 10 42
e 10 46
e 10 47
e 10 52
e 10 53
e 10 55
e 10 57
e 10 58
e 10 60
e 10 61
e 10 64
e 10 65
e 10 69
e 10 71
e 10 72
e 10 73
e 11 12
e 11 13
e 11 14
e 11 16
e 11 19
e 11 21
e 11 24
e 11 28
e 11 29
e 11 32
e 11 33
e 11 35
e 11 37
e 11 39
e 11 40
e 11 42
e 11 45
e 11 46
e 11 47
e 11 48
e 11 51
e 11 56
e 11 58
e 11 60
e 11 62
e 11 63
e 11 64
e 11 69
e 11 71
e 11 72
e 11 75
e 12 13
e 12 18
e 12 22
e 12 23
e 12 25
e 12 30
e 12 31
e 12 34
e 12 35
e 12 39
e 12 42
e 12 46
e 12 47
e 12 49
e 12 50
e 12 55
e 12 57
e 12 59
e 12 60
e 12 61
e 12 62
e 12 64
e 12 66
e 12 68
e 12 69
e 12 70
e 12 73
e 12 75
e 13 14
e 13 17
e 13 20
e 13 21
e 13 24
e 13 25
e 13 27
e 13 30
e 13 31
e 13 33
e 13 34
e 13 36
e 13 41
e 13 46
e 13 47
e 13 49
e 13 50
e 13 52
e 13 55
e 13 57
e 13 59
e 13 60
e 13 63
e 13 64
e 13 65
e 13 67
e 13 68
e 13 73
e 13 74
e 13 75
e 14 18
e 14 19
e 14 22
e 14 23
e 14 26
e 14 27
e 14 30
e 14 33
e 14 36
e 14 37
e 14 41
e 14 42
e 14 46
e 14 51
e 14 52
e 14 55
e 14 56
e 14 57
e 14 59
e 14 61
e 14 62
e 14 63
e 14 67
e 14 69
e 14 70
e 14 71
e 14 72
e 14 73
e 14 74
e 15 16
e 15 17
e 15 19
e 15 24
e 15 34
e 15 37
e 15 38
e 15 39
e 15 41
e 15 42
e 15 45
e 15 46
e 15 47
e 15 48
e 15 49
e 15 50
e 15 51
e 15 52
e 15 53
e 15 55
e 15 61
e 15 63
e 15 64
e 15 65
e 15 66
e 15 68
e 15 69
e 15 70
e 15 71
e 15 72
e 15 73
e 16 17
e 16 19
e 16 20
e 16 21
e 16 22
e 16 23
e 16 24
e 16 25
e 16 26
e 16 28
e 16 29
e 16 33
e 16 34
e 16 39
e 16 40
e 16 43
e 16 46
e 16 48
e 16 49
e 16 53
e 16 54
e 16 55
e 16 57
e 16 59
e 16 63
e 16 70
e 16 72
e 16 73
e 17 18
e 17 22
e 17 23
e 17 25
e 17 26
e 17 27
e 17 30
e 17 31
e 17 32
e 17 34
e 17 36
e 17 39
e 17 40
e 17 42
e 17 44
e 17 46
e 17 48
e 17 50
e 17 54
e 17 59
e 17 62
e 17 63
e 17 71
e 17 73
e 17 74
e 17 75
e 18 20
e 18 21
e 18 22
e 18 24
e 18 30
e 18 31
e 18 33
e 18 34
e 18 36
e 18 37
e 18 38
e 18 40
e 18 45
e 18 47
e 18 49
e 18 51
e 18 54
e 18 56
e 18 57
e 18 58
e 18 62
e 18 66
e 18 70
e 18 71
e 18 72
e 18 73
e 19 21
e 19 22
e 19 30
e 19 32
e 19 38
e 19 41
e 19 44
e 19 45
e 19 46
e 19 49
e 19 50
e 19 51
e 19 52
e 19 54
e 19 56
e 19 57
e 19 58
e 19 59
e 19 65
e 19 67
e 19 71
e 19 75
e 20 21
e 20 22
e 20 23
e 20 24
e 20 26
e 20 28
e 20 29
e 20 33
e 20 34
e 20 35
e 20 36
e 20 39
e 20 40
e 20 41
e 20 43
e 20 46
e 20 48
e 20 49
e 20 50
e 20 51
e 20 52
e 20 53
e 20 55
e 20 58
e 20 61
e 20 62
e 20 63
e 20 64
e 20 66
e 20 68
e 20 69
e 20 70
e 20 71
e 20 72
e 20 73
e 20 74
e 20 75
e 21 23
e 21 24
e 21 25
e 21 27
e 21 28
e 21 29
e 21 30
e 21 35
e 21 38
e 21 39
e 21 40
e 21 41
e 21 45
e 21 47
e 21 49
e 21 50
e 21 51
e 21 52
e 21 53
e 21 56
e 21 58
e 21 59
e 21 61
e 21 64
e 21 65
e 21 66
e 21 68
e 21 69
e 21 70
e 21 72
e 21 74
e 22 23
e 22 24
e 22 25
e 22 27
e 22 28
e 22 29
e 22 31
e 22 32
e 22 34
e 22 35
e 22 38
e 22 39
e 22 43
e 22 45
e 22 46
e 22 48
e 22 49
e 22 51
e 22 53
e 22 54
e 22 56
e 22 58
e 22 59
e 22 62
e 22 63
e 22 65
e 22 68
e 22 70
e 22 72
e 23 25
e 23 26
e 23 27
e 23 28
e 23 29
e 23 31
e 23 32
e 23 35
e 23 38
e 23 42
e 23 43
e 23 44
e 23 46
e 23 47
e 23 49
e 23 52
e 23 53
e 23 54
e 23 58
e 23 59
e 23 60
e 23 61
e 23 66
e 23 67
e 23 68
e 23 69
e 23 70
e 23 74
e 24 25
e 24 27
e 24 28
e 24 31
e 24 33
e 24 34
e 24 35
e 24 38
e 24 42
e 24 45
e 24 47
e 24 48
e 24 51
e 24 54
e 24 56
e 24 57
e 24 58
e 24 59
e 24 63
e 24 64
e 24 65
e 24 66
e 24 67
e 24 68
e 24 69
e 24 71
e 24 72
e 24 75
e 25 26
e 25 28
e 25 29
e 25 30
e 25 33
e 25 34
e 25 37
e 25 38
e 25 39
e 25 40
e 25 41
e 25 45
e 25 47
e 25 48
e 25 50
e 25 51
e 25 53
e 25 54
e 25 55
e 25 61
e 25 62
e 25 65
e 25 66
e 25 67
e 25 74
e 25 75
e 26 27
e 26 29
e 26 33
e 26 34
e 26 36
e 26 38
e 26 39
e 26 42
e 26 44
e 26 46
e 26 47
e 26 51
e 26 53
e 26 58
e 26 59
e 26 60
e 26 61
e 26 63
e 26 64
e 26 65
e 26 66
e 26 67
e 26 68
e 26 69
e 26 70
e 27 29
e 27 30
e 27 33
e 27 35
e 27 39
e 27 40
e 27 41
e 27 43
e 27 44
e 27 45
e 27 46
e 27 47
e 27 49
e 27 50
e 27 51
e 27 52
e 27 55
e 27 61
e 27 62
e 27 65
e 27 67
e 27 69
e 27 71
e 27 72
e 28 31
e 28 32
e 28 33
e 28 34
e 28 35
e 28 39
e 28 46
e 28 47
e 28 50
e 28 54
e 28 55
e 28 57
e 28 58
e 28 59
e 28 61
e 28 62
e 28 63
e 28 64
e 28 67
e 28 68
e 28 70
e 28 71
e 28 74
e 29 30
e 29 36
e 29 38
e 29 40
e 29 41
e 29 44
e 29 45
e 29 51
e 29 52
e 29 53
e 29 55
e 29 56
e 29 60
e 29 61
e 29 62
e 29 64
e 29 65
e 29 66
e 29 72
e 29 74
e 30 32
e 30 33
e 30 36
e 30 38
e 30 40
e 30 43
e 30 48
e 30 49
e 30 52
e 30 53
e 30 55
e 30 61
e 30 62
e 30 63
e 30 64
e 30 65
e 30 66
e 30 68
e 30 72
e 30 75
e 31 33
e 31 34
e 31 36
e 31 44
e 31 45
e 31 47
e 31 48
e 31 50
e 31 52
e 31 53
e 31 55
e 31 56
e 31 57
e 31 59
e 31 60
e 31 61
e 31 62
e 31 64
e 31 65
e 31 66
e 31 67
e 31 68
e 31 75
e 32 35
e 32 37
e 32 38
e 32 42
e 32 46
e 32 50
e 32 51
e 32 54
e 32 57
e 32 58
e 32 59
e 32 62
e 32 63
e 32 65
e 32 74
e 33 34
e 33 36
e 33 38
e 33 39
e 33 40
e 33 42
e 33 43
e 33 44
e 33 46
e 33 47
e 33 48
e 33 49
e 33 50
e 33 53
e 33 54
e 33 55
e 33 56
e 33 58
e 33 60
e 33 62
e 33 63
e 33 65
e 33 66
e 33 67
e 33 70
e 33 75
e 34 36
e 34 37
e 34 38
e 34 45
e 34 46
e 34 47
e 34 48
e 34 51
e 34 52
e 34 56
e 34 57
e 34 60
e 34 61
e 34 62
e 34 63
e 34 66
e 34 67
e 34 68
e 34 70
e 34 71
e 34 74
e 34 75
e 35 36
e 35 37
e 35 39
e 35 40
e 35 43
e 35 44
e 35 46
e 35 47
e 35 48
e 35 49
e 35 50
e 35 53
e 35 55
e 35 56
e 35 57
e 35 58
e 35 61
e 35 62
e 35 63
e 35 64
e 35 65
e 35 69
e 35 70
e 35 71
e 35 75
e 36 37
e 36 39
e 36 40
e 36 41
e 36 43
e 36 46
e 36 47
e 36 51
e 36 52
e 36 53
e 36 54
e 36 55
e 36 56
e 36 58
e 36 59
e 36 61
e 36 66
e 36 67
e 36 68
e 36 69
e 36 70
e 36 71
e 36 73
e 36 74
e 37 39
e 37 40
e 37 41
e 37 42
e 37 43
e 37 44
e 37 46
e 37 52
e 37 53
e 37 54
e 37 55
e 37 57
e 37 58
e 37 60
e 37 62
e 37 65
e 37 66
e 37 67
e 37 69
e 37 70
e 37 72
e 37 74
e 37 75
e 38 39
e 38 43
e 38 46
e 38 47
e 38 49
e 38 50
e 38 51
e 38 53
e 38 55
e 38 58
e 38 59
e 38 60
e 38 64
e 38 65
e 38 67
e 38 68
e 38 69
e 38 73
e 38 74
e 39 40
e 39 47
e 39 51
e 39 52
e 39 53
e 39 54
e 39 56
e 39 60
e 39 63
e 39 64
e 39 67
e 39 70
e 39 74
e 40 41
e 40 46
e 40 47
e 40 48
e 40 49
e 40 50
e 40 55
e 40 59
e 40 62
e 40 63
e 40 66
e 40 67
e 40 69
e 40 70
e 40 72
e 41 42
e 41 43
e 41 44
e 41 46
e 41 47
e 41 49
e 41 53
e 41 56
e 41 58
e 41 59
e 41 62
e 41 63
e 41 65
e 41 70
e 41 71
e 41 72
e 41 73
e 41 74
e 42 43
e 42 44
e 42 47
e 42 48
e 42 50
e 42 51
e 42 54
e 42 55
e 42 56
e 42 58
e 42 64
e 42 66
e 42 67
e 42 70
e 42 71
e 42 74
e 42 75
e 43 44
e 43 45
e 43 48
e 43 49
e 43 50
e 43 51
e 43 54
e 43 58
e 43 61
e 43 62
e 43 64
e 43 66
e 43 67
e 43 69
e 43 71
e 43 72
e 43 73
e 44 48
e 44 49
e 44 50
e 44 52
e 44 53
e 44 54
e 44 56
e 44 58
e 44 59
e 44 62
e 44 64
e 44 68
e 44 71
e 45 46
e 45 49
e 45 50
e 45 51
e 45 52
e 45 54
e 45 61
e 45 64
e 45 66
e 45 67
e 45 69
e 46 47
e 46 49
e 46 51
e 46 55
e 46 56
e 46 58
e 46 60
e 46 61
e 46 62
e 46 64
e 46 65
e 46 68
e 46 72
e 46 73
e 46 74
e 47 48
e 47 49
e 47 52
e 47 53
e 47 54
e 47 55
e 47 57
e 47 58
e 47 59
e 47 62
e 47 63
e 47 64
e 47 65
e 47 66
e 47 67
e 47 68
e 47 70
e 47 74
e 47 75
e 48 51
e 48 52
e 48 53
e 48 54
e 48 55
e 48 57
e 48 58
e 48 61
e 48 63
e 48 64
e 48 65
e 48 66
e 48 70
e 48 71
e 48 72
e 48 73
e 48 75
e 49 51
e 49 52
e 49 55
e 49 56
e 49 60
e 49 62
e 49 65
e 49 66
e 49 68
e 49 69
e 49 70
e 49 71
e 49 72
e 49 74
e 50 55
e 50 56
e 50 58
e 50 59
e 50 60
e 50 61
e 50 62
e 50 65
e 50 66
e 50 68
e 50 70
e 50 71
e 50 75
e 51 52
e 51 54
e 51 57
e 51 59
e 51 63
e 51 65
e 51 66
e 51 67
e 51 68
e 51 70
e 51 71
e 51 75
e 52 53
e 52 54
e 52 55
e 52 59
e 52 61
e 52 62
e 52 63
e 52 64
e 52 68
e 52 69
e 52 71
e 52 72
e 52 75
e 53 54
e 53 58
e 53 60
e 53 63
e 53 64
e 53 65
e 53 69
e 53 70
e 53 71
e 53 73
e 53 74
e 53 75
e 54 56
e 54 57
e 54 60
e 54 61
e 54 66
e 54 67
e 54 68
e 54 71
e 54 73
e 54 74
e 55 56
e 55 57
e 55 58
e 55 60
e 55 64
e 55 66
e 55 68
e 55 69
e 55 72
e 56 58
e 56 59
e 56 61
e 56 62
e 56 63
e 56 67
e 56 68
e 56 69
e 56 70
e 56 72
e 56 73
e 56 75
e 57 59
e 57 60
e 57 61
e 57 63
e 57 64
e 57 65
e 57 66
e 57 67
e 57 68
e 57 72
e 57 74
e 58 60
e 58 64
e 58 68
e 58 73
e 58 74
e 59 60
e 59 62
e 59 67
e 59 69
e 59 72
e 60 62
e 60 65
e 60 67
e 60 68
e 60 69
e 60 70
e 60 72
e 60 73
e 61 63
e 61 66
e 61 67
e 61 69
e 61 71
e 61 75
e 62 65
e 62 66
e 62 67
e 62 68
e 62 72
e 62 73
e 62 74
e 62 75
e 63 64
e 63 65
e 63 67
e 63 68
e 63 70
e 63 71
e 63 72
e 63 75
e 64 66
e 64 69
e 64 70
e 65 66
e 65 67
e 65 73
e 65 75
e 66 68
e 66 73
e 67 68
e 67 74
e 67 75
e 68 74
e 68 75
e 69 73
e 70 75
e 71 75
e 72 73
e 73 74
